100
128
50
28
32
11
48
46
7
15
24
26
54
61
15
48
41
13
25
36
37
59
45
10
2
48
29
30
30
9
51
51
7
26
10
2
37
10
63
30
18
4
32
45
22
2
30
24
55
35
25
19
31
2
2
23
50
46
37
56
18
17
25
17
19
22
38
32
22
3
1
6
49
4
26
1
49
17
32
3
1
2
38
31
5
18
1
32
24
38
2
21
33
19
38
64
63
35
1
2
38
55